p cnf 200 1110
-101 -52 0
-101 -34 0
-101 -84 0
-101 4 0
-101 -21 0
-101 64 0
-101 -76 0
-101 44 0
-101 -93 0
-101 -29 0
101 52 34 84 -4 21 -64 76 -44 93 29 0
-102 -76 0
-102 37 0
-102 -22 0
-102 52 0
-102 14 0
-102 95 0
-102 -23 0
-102 80 0
-102 -6 0
-102 11 0
102 76 -37 22 -52 -14 -95 23 -80 6 -11 0
-103 38 0
-103 -89 0
-103 84 0
-103 59 0
-103 -82 0
-103 -66 0
-103 68 0
-103 -21 0
-103 5 0
-103 -33 0
103 -38 89 -84 -59 82 66 -68 21 -5 33 0
-104 -32 0
-104 44 0
-104 -6 0
-104 81 0
-104 -37 0
-104 85 0
-104 56 0
-104 87 0
-104 -66 0
-104 55 0
104 32 -44 6 -81 37 -85 -56 -87 66 -55 0
-105 37 0
-105 -8 0
-105 -3 0
-105 -39 0
-105 -43 0
-105 64 0
-105 -94 0
-105 -24 0
-105 98 0
-105 -50 0
105 -37 8 3 39 43 -64 94 24 -98 50 0
-106 -37 0
-106 91 0
-106 63 0
-106 -85 0
-106 61 0
-106 -31 0
-106 74 0
-106 48 0
-106 24 0
-106 -15 0
106 37 -91 -63 85 -61 31 -74 -48 -24 15 0
-107 100 0
-107 -18 0
-107 72 0
-107 62 0
-107 37 0
-107 -26 0
-107 -25 0
-107 5 0
-107 47 0
-107 -3 0
107 -100 18 -72 -62 -37 26 25 -5 -47 3 0
-108 42 0
-108 93 0
-108 -61 0
-108 -4 0
-108 -32 0
-108 24 0
-108 52 0
-108 -86 0
-108 13 0
-108 -8 0
108 -42 -93 61 4 32 -24 -52 86 -13 8 0
-109 73 0
-109 -89 0
-109 57 0
-109 -83 0
-109 -64 0
-109 -34 0
-109 -16 0
-109 -55 0
-109 -58 0
-109 87 0
109 -73 89 -57 83 64 34 16 55 58 -87 0
-110 42 0
-110 -75 0
-110 -40 0
-110 -32 0
-110 29 0
-110 -88 0
-110 44 0
-110 83 0
-110 86 0
-110 -57 0
110 -42 75 40 32 -29 88 -44 -83 -86 57 0
101 102 103 104 105 106 107 108 109 110 0
-111 -95 0
-111 26 0
-111 -44 0
-111 -98 0
-111 86 0
-111 40 0
-111 -39 0
-111 -87 0
-111 100 0
-111 -81 0
111 95 -26 44 98 -86 -40 39 87 -100 81 0
-112 15 0
-112 -68 0
-112 45 0
-112 -100 0
-112 65 0
-112 82 0
-112 8 0
-112 -63 0
-112 79 0
-112 -73 0
112 -15 68 -45 100 -65 -82 -8 63 -79 73 0
-113 56 0
-113 63 0
-113 -71 0
-113 -49 0
-113 88 0
-113 -30 0
-113 66 0
-113 -13 0
-113 -65 0
-113 44 0
113 -56 -63 71 49 -88 30 -66 13 65 -44 0
-114 5 0
-114 -7 0
-114 60 0
-114 34 0
-114 -38 0
-114 -98 0
-114 -81 0
-114 -77 0
-114 -31 0
-114 30 0
114 -5 7 -60 -34 38 98 81 77 31 -30 0
-115 52 0
-115 23 0
-115 9 0
-115 -83 0
-115 87 0
-115 -44 0
-115 -78 0
-115 -49 0
-115 37 0
-115 86 0
115 -52 -23 -9 83 -87 44 78 49 -37 -86 0
-116 71 0
-116 45 0
-116 53 0
-116 -25 0
-116 50 0
-116 -42 0
-116 8 0
-116 75 0
-116 -76 0
-116 4 0
116 -71 -45 -53 25 -50 42 -8 -75 76 -4 0
-117 46 0
-117 80 0
-117 -96 0
-117 72 0
-117 1 0
-117 3 0
-117 50 0
-117 -41 0
-117 8 0
-117 75 0
117 -46 -80 96 -72 -1 -3 -50 41 -8 -75 0
-118 -77 0
-118 -24 0
-118 -53 0
-118 -14 0
-118 -21 0
-118 -93 0
-118 86 0
-118 37 0
-118 16 0
-118 75 0
118 77 24 53 14 21 93 -86 -37 -16 -75 0
-119 -23 0
-119 29 0
-119 44 0
-119 -83 0
-119 -49 0
-119 75 0
-119 -87 0
-119 10 0
-119 -57 0
-119 -36 0
119 23 -29 -44 83 49 -75 87 -10 57 36 0
-120 -50 0
-120 1 0
-120 79 0
-120 -30 0
-120 -34 0
-120 36 0
-120 -15 0
-120 41 0
-120 -13 0
-120 87 0
120 50 -1 -79 30 34 -36 15 -41 13 -87 0
111 112 113 114 115 116 117 118 119 120 0
-121 20 0
-121 -90 0
-121 82 0
-121 26 0
-121 -71 0
-121 7 0
-121 -99 0
-121 -81 0
-121 -79 0
-121 -56 0
121 -20 90 -82 -26 71 -7 99 81 79 56 0
-122 94 0
-122 -17 0
-122 19 0
-122 -60 0
-122 -58 0
-122 88 0
-122 -85 0
-122 22 0
-122 67 0
-122 12 0
122 -94 17 -19 60 58 -88 85 -22 -67 -12 0
-123 -80 0
-123 8 0
-123 44 0
-123 -26 0
-123 14 0
-123 56 0
-123 -89 0
-123 -93 0
-123 -6 0
-123 69 0
123 80 -8 -44 26 -14 -56 89 93 6 -69 0
-124 25 0
-124 -74 0
-124 -27 0
-124 -14 0
-124 -69 0
-124 89 0
-124 -2 0
-124 42 0
-124 7 0
-124 -75 0
124 -25 74 27 14 69 -89 2 -42 -7 75 0
-125 -91 0
-125 49 0
-125 -51 0
-125 -10 0
-125 -28 0
-125 -21 0
-125 32 0
-125 -64 0
-125 4 0
-125 -29 0
125 91 -49 51 10 28 21 -32 64 -4 29 0
-126 -27 0
-126 11 0
-126 13 0
-126 5 0
-126 51 0
-126 -21 0
-126 -46 0
-126 74 0
-126 -87 0
-126 77 0
126 27 -11 -13 -5 -51 21 46 -74 87 -77 0
-127 -13 0
-127 -6 0
-127 14 0
-127 -3 0
-127 61 0
-127 23 0
-127 -18 0
-127 -56 0
-127 -73 0
-127 -27 0
127 13 6 -14 3 -61 -23 18 56 73 27 0
-128 -52 0
-128 60 0
-128 -39 0
-128 -6 0
-128 89 0
-128 -97 0
-128 -17 0
-128 -43 0
-128 56 0
-128 30 0
128 52 -60 39 6 -89 97 17 43 -56 -30 0
-129 35 0
-129 -20 0
-129 13 0
-129 77 0
-129 58 0
-129 2 0
-129 55 0
-129 43 0
-129 -93 0
-129 -54 0
129 -35 20 -13 -77 -58 -2 -55 -43 93 54 0
-130 -67 0
-130 20 0
-130 12 0
-130 17 0
-130 50 0
-130 44 0
-130 92 0
-130 -81 0
-130 13 0
-130 -86 0
130 67 -20 -12 -17 -50 -44 -92 81 -13 86 0
121 122 123 124 125 126 127 128 129 130 0
-131 -35 0
-131 -11 0
-131 54 0
-131 -56 0
-131 66 0
-131 -88 0
-131 -68 0
-131 21 0
-131 -45 0
-131 79 0
131 35 11 -54 56 -66 88 68 -21 45 -79 0
-132 -59 0
-132 -70 0
-132 -93 0
-132 -6 0
-132 34 0
-132 -42 0
-132 77 0
-132 -65 0
-132 1 0
-132 -16 0
132 59 70 93 6 -34 42 -77 65 -1 16 0
-133 8 0
-133 9 0
-133 47 0
-133 24 0
-133 20 0
-133 -4 0
-133 -67 0
-133 62 0
-133 -36 0
-133 14 0
133 -8 -9 -47 -24 -20 4 67 -62 36 -14 0
-134 2 0
-134 -52 0
-134 -87 0
-134 -17 0
-134 63 0
-134 10 0
-134 -89 0
-134 18 0
-134 -86 0
-134 56 0
134 -2 52 87 17 -63 -10 89 -18 86 -56 0
-135 -17 0
-135 28 0
-135 13 0
-135 -63 0
-135 73 0
-135 80 0
-135 57 0
-135 -82 0
-135 99 0
-135 -19 0
135 17 -28 -13 63 -73 -80 -57 82 -99 19 0
-136 57 0
-136 -23 0
-136 -3 0
-136 -85 0
-136 94 0
-136 47 0
-136 -78 0
-136 86 0
-136 -44 0
-136 77 0
136 -57 23 3 85 -94 -47 78 -86 44 -77 0
-137 -56 0
-137 86 0
-137 79 0
-137 23 0
-137 -38 0
-137 -100 0
-137 -43 0
-137 3 0
-137 -72 0
-137 -88 0
137 56 -86 -79 -23 38 100 43 -3 72 88 0
-138 -94 0
-138 46 0
-138 -52 0
-138 23 0
-138 -29 0
-138 -8 0
-138 -45 0
-138 -62 0
-138 27 0
-138 -10 0
138 94 -46 52 -23 29 8 45 62 -27 10 0
-139 -48 0
-139 75 0
-139 64 0
-139 13 0
-139 70 0
-139 -62 0
-139 54 0
-139 37 0
-139 -15 0
-139 80 0
139 48 -75 -64 -13 -70 62 -54 -37 15 -80 0
-140 -36 0
-140 -87 0
-140 96 0
-140 -64 0
-140 -1 0
-140 -90 0
-140 34 0
-140 88 0
-140 77 0
-140 94 0
140 36 87 -96 64 1 90 -34 -88 -77 -94 0
131 132 133 134 135 136 137 138 139 140 0
-141 96 0
-141 74 0
-141 20 0
-141 11 0
-141 -16 0
-141 8 0
-141 19 0
-141 -7 0
-141 83 0
-141 18 0
141 -96 -74 -20 -11 16 -8 -19 7 -83 -18 0
-142 98 0
-142 90 0
-142 -94 0
-142 6 0
-142 -50 0
-142 -36 0
-142 26 0
-142 83 0
-142 -86 0
-142 69 0
142 -98 -90 94 -6 50 36 -26 -83 86 -69 0
-143 56 0
-143 -65 0
-143 30 0
-143 -53 0
-143 -47 0
-143 10 0
-143 37 0
-143 17 0
-143 68 0
-143 14 0
143 -56 65 -30 53 47 -10 -37 -17 -68 -14 0
-144 -48 0
-144 100 0
-144 -21 0
-144 11 0
-144 96 0
-144 -94 0
-144 73 0
-144 33 0
-144 -83 0
-144 20 0
144 48 -100 21 -11 -96 94 -73 -33 83 -20 0
-145 89 0
-145 87 0
-145 47 0
-145 -54 0
-145 -73 0
-145 -100 0
-145 81 0
-145 -39 0
-145 99 0
-145 -42 0
145 -89 -87 -47 54 73 100 -81 39 -99 42 0
-146 98 0
-146 -91 0
-146 -39 0
-146 66 0
-146 69 0
-146 80 0
-146 -13 0
-146 42 0
-146 59 0
-146 -20 0
146 -98 91 39 -66 -69 -80 13 -42 -59 20 0
-147 -6 0
-147 -73 0
-147 49 0
-147 -85 0
-147 -10 0
-147 -89 0
-147 -81 0
-147 60 0
-147 34 0
-147 -75 0
147 6 73 -49 85 10 89 81 -60 -34 75 0
-148 97 0
-148 -89 0
-148 -63 0
-148 -74 0
-148 46 0
-148 -69 0
-148 45 0
-148 -11 0
-148 -73 0
-148 57 0
148 -97 89 63 74 -46 69 -45 11 73 -57 0
-149 -100 0
-149 15 0
-149 -9 0
-149 93 0
-149 30 0
-149 -69 0
-149 59 0
-149 14 0
-149 35 0
-149 -31 0
149 100 -15 9 -93 -30 69 -59 -14 -35 31 0
-150 -51 0
-150 -67 0
-150 71 0
-150 -33 0
-150 -41 0
-150 -32 0
-150 -87 0
-150 93 0
-150 57 0
-150 78 0
150 51 67 -71 33 41 32 87 -93 -57 -78 0
141 142 143 144 145 146 147 148 149 150 0
-151 -29 0
-151 51 0
-151 21 0
-151 -26 0
-151 -91 0
-151 -72 0
-151 27 0
-151 76 0
-151 -6 0
-151 62 0
151 29 -51 -21 26 91 72 -27 -76 6 -62 0
-152 90 0
-152 -39 0
-152 93 0
-152 41 0
-152 -46 0
-152 53 0
-152 -19 0
-152 -60 0
-152 -81 0
-152 -21 0
152 -90 39 -93 -41 46 -53 19 60 81 21 0
-153 -63 0
-153 -81 0
-153 17 0
-153 -9 0
-153 1 0
-153 61 0
-153 15 0
-153 -58 0
-153 -43 0
-153 -30 0
153 63 81 -17 9 -1 -61 -15 58 43 30 0
-154 -97 0
-154 20 0
-154 96 0
-154 22 0
-154 85 0
-154 -71 0
-154 6 0
-154 50 0
-154 59 0
-154 -42 0
154 97 -20 -96 -22 -85 71 -6 -50 -59 42 0
-155 45 0
-155 -64 0
-155 -6 0
-155 -7 0
-155 -78 0
-155 52 0
-155 -71 0
-155 12 0
-155 -29 0
-155 -31 0
155 -45 64 6 7 78 -52 71 -12 29 31 0
-156 84 0
-156 -7 0
-156 -54 0
-156 -10 0
-156 -34 0
-156 -75 0
-156 -79 0
-156 -88 0
-156 27 0
-156 -45 0
156 -84 7 54 10 34 75 79 88 -27 45 0
-157 -39 0
-157 71 0
-157 -68 0
-157 43 0
-157 28 0
-157 75 0
-157 63 0
-157 87 0
-157 61 0
-157 -86 0
157 39 -71 68 -43 -28 -75 -63 -87 -61 86 0
-158 -57 0
-158 -40 0
-158 37 0
-158 96 0
-158 21 0
-158 11 0
-158 -46 0
-158 87 0
-158 -59 0
-158 -47 0
158 57 40 -37 -96 -21 -11 46 -87 59 47 0
-159 82 0
-159 -32 0
-159 37 0
-159 29 0
-159 -49 0
-159 40 0
-159 25 0
-159 -12 0
-159 88 0
-159 92 0
159 -82 32 -37 -29 49 -40 -25 12 -88 -92 0
-160 4 0
-160 82 0
-160 7 0
-160 25 0
-160 24 0
-160 37 0
-160 -56 0
-160 -64 0
-160 -91 0
-160 2 0
160 -4 -82 -7 -25 -24 -37 56 64 91 -2 0
151 152 153 154 155 156 157 158 159 160 0
-161 -8 0
-161 61 0
-161 45 0
-161 -100 0
-161 75 0
-161 63 0
-161 86 0
-161 60 0
-161 -50 0
-161 -80 0
161 8 -61 -45 100 -75 -63 -86 -60 50 80 0
-162 98 0
-162 -9 0
-162 55 0
-162 -52 0
-162 -83 0
-162 -35 0
-162 65 0
-162 -93 0
-162 33 0
-162 66 0
162 -98 9 -55 52 83 35 -65 93 -33 -66 0
-163 53 0
-163 -46 0
-163 96 0
-163 -87 0
-163 -84 0
-163 -18 0
-163 -23 0
-163 -20 0
-163 -42 0
-163 6 0
163 -53 46 -96 87 84 18 23 20 42 -6 0
-164 -61 0
-164 -83 0
-164 -68 0
-164 -38 0
-164 60 0
-164 70 0
-164 63 0
-164 -23 0
-164 -64 0
-164 48 0
164 61 83 68 38 -60 -70 -63 23 64 -48 0
-165 -94 0
-165 32 0
-165 -12 0
-165 -27 0
-165 -91 0
-165 100 0
-165 53 0
-165 67 0
-165 -69 0
-165 20 0
165 94 -32 12 27 91 -100 -53 -67 69 -20 0
-166 -29 0
-166 81 0
-166 -83 0
-166 -3 0
-166 1 0
-166 40 0
-166 43 0
-166 13 0
-166 -22 0
-166 97 0
166 29 -81 83 3 -1 -40 -43 -13 22 -97 0
-167 92 0
-167 22 0
-167 43 0
-167 -76 0
-167 17 0
-167 -4 0
-167 88 0
-167 -72 0
-167 -10 0
-167 -1 0
167 -92 -22 -43 76 -17 4 -88 72 10 1 0
-168 72 0
-168 -91 0
-168 21 0
-168 -41 0
-168 -44 0
-168 47 0
-168 -14 0
-168 -64 0
-168 2 0
-168 30 0
168 -72 91 -21 41 44 -47 14 64 -2 -30 0
-169 98 0
-169 30 0
-169 62 0
-169 -14 0
-169 29 0
-169 21 0
-169 12 0
-169 17 0
-169 -67 0
-169 88 0
169 -98 -30 -62 14 -29 -21 -12 -17 67 -88 0
-170 -3 0
-170 -65 0
-170 -50 0
-170 -27 0
-170 -26 0
-170 56 0
-170 69 0
-170 80 0
-170 -55 0
-170 53 0
170 3 65 50 27 26 -56 -69 -80 55 -53 0
161 162 163 164 165 166 167 168 169 170 0
-171 8 0
-171 -37 0
-171 16 0
-171 -61 0
-171 93 0
-171 -86 0
-171 -96 0
-171 -97 0
-171 85 0
-171 53 0
171 -8 37 -16 61 -93 86 96 97 -85 -53 0
-172 -35 0
-172 62 0
-172 11 0
-172 63 0
-172 -39 0
-172 -65 0
-172 66 0
-172 9 0
-172 76 0
-172 100 0
172 35 -62 -11 -63 39 65 -66 -9 -76 -100 0
-173 75 0
-173 -65 0
-173 -26 0
-173 -36 0
-173 3 0
-173 -11 0
-173 76 0
-173 82 0
-173 23 0
-173 77 0
173 -75 65 26 36 -3 11 -76 -82 -23 -77 0
-174 -98 0
-174 77 0
-174 -22 0
-174 -63 0
-174 91 0
-174 84 0
-174 73 0
-174 23 0
-174 -75 0
-174 6 0
174 98 -77 22 63 -91 -84 -73 -23 75 -6 0
-175 53 0
-175 -73 0
-175 82 0
-175 -9 0
-175 -84 0
-175 -19 0
-175 66 0
-175 -1 0
-175 -47 0
-175 -30 0
175 -53 73 -82 9 84 19 -66 1 47 30 0
-176 -29 0
-176 83 0
-176 -46 0
-176 71 0
-176 -44 0
-176 87 0
-176 28 0
-176 35 0
-176 8 0
-176 -20 0
176 29 -83 46 -71 44 -87 -28 -35 -8 20 0
-177 57 0
-177 50 0
-177 -52 0
-177 -99 0
-177 7 0
-177 87 0
-177 -21 0
-177 55 0
-177 10 0
-177 -97 0
177 -57 -50 52 99 -7 -87 21 -55 -10 97 0
-178 -4 0
-178 -10 0
-178 -42 0
-178 -51 0
-178 -43 0
-178 54 0
-178 20 0
-178 -25 0
-178 -24 0
-178 9 0
178 4 10 42 51 43 -54 -20 25 24 -9 0
-179 57 0
-179 -68 0
-179 35 0
-179 61 0
-179 -49 0
-179 90 0
-179 -56 0
-179 32 0
-179 64 0
-179 -67 0
179 -57 68 -35 -61 49 -90 56 -32 -64 67 0
-180 42 0
-180 -89 0
-180 -12 0
-180 -16 0
-180 -29 0
-180 -76 0
-180 17 0
-180 59 0
-180 -32 0
-180 -41 0
180 -42 89 12 16 29 76 -17 -59 32 41 0
171 172 173 174 175 176 177 178 179 180 0
-181 72 0
-181 -93 0
-181 -79 0
-181 65 0
-181 56 0
-181 -64 0
-181 -62 0
-181 8 0
-181 77 0
-181 28 0
181 -72 93 79 -65 -56 64 62 -8 -77 -28 0
-182 86 0
-182 11 0
-182 81 0
-182 51 0
-182 79 0
-182 -67 0
-182 60 0
-182 82 0
-182 -20 0
-182 -31 0
182 -86 -11 -81 -51 -79 67 -60 -82 20 31 0
-183 70 0
-183 -20 0
-183 -10 0
-183 -71 0
-183 24 0
-183 -57 0
-183 -17 0
-183 -35 0
-183 86 0
-183 28 0
183 -70 20 10 71 -24 57 17 35 -86 -28 0
-184 -54 0
-184 21 0
-184 -45 0
-184 -36 0
-184 -35 0
-184 42 0
-184 87 0
-184 -11 0
-184 72 0
-184 -16 0
184 54 -21 45 36 35 -42 -87 11 -72 16 0
-185 74 0
-185 -97 0
-185 25 0
-185 -7 0
-185 28 0
-185 2 0
-185 -6 0
-185 59 0
-185 41 0
-185 39 0
185 -74 97 -25 7 -28 -2 6 -59 -41 -39 0
-186 93 0
-186 -55 0
-186 54 0
-186 -65 0
-186 -94 0
-186 57 0
-186 48 0
-186 21 0
-186 -66 0
-186 11 0
186 -93 55 -54 65 94 -57 -48 -21 66 -11 0
-187 59 0
-187 -96 0
-187 35 0
-187 54 0
-187 91 0
-187 -87 0
-187 53 0
-187 -58 0
-187 -49 0
-187 -76 0
187 -59 96 -35 -54 -91 87 -53 58 49 76 0
-188 4 0
-188 20 0
-188 -54 0
-188 -11 0
-188 -3 0
-188 -2 0
-188 90 0
-188 -6 0
-188 -94 0
-188 -30 0
188 -4 -20 54 11 3 2 -90 6 94 30 0
-189 -62 0
-189 -25 0
-189 28 0
-189 3 0
-189 51 0
-189 82 0
-189 -93 0
-189 38 0
-189 36 0
-189 -65 0
189 62 25 -28 -3 -51 -82 93 -38 -36 65 0
-190 77 0
-190 21 0
-190 67 0
-190 -68 0
-190 -46 0
-190 39 0
-190 92 0
-190 -84 0
-190 -98 0
-190 -93 0
190 -77 -21 -67 68 46 -39 -92 84 98 93 0
181 182 183 184 185 186 187 188 189 190 0
-191 47 0
-191 19 0
-191 51 0
-191 84 0
-191 -52 0
-191 -14 0
-191 -58 0
-191 -41 0
-191 32 0
-191 -12 0
191 -47 -19 -51 -84 52 14 58 41 -32 12 0
-192 -87 0
-192 56 0
-192 21 0
-192 58 0
-192 90 0
-192 -83 0
-192 15 0
-192 -54 0
-192 22 0
-192 -96 0
192 87 -56 -21 -58 -90 83 -15 54 -22 96 0
-193 90 0
-193 11 0
-193 -72 0
-193 -89 0
-193 44 0
-193 -49 0
-193 29 0
-193 20 0
-193 -32 0
-193 34 0
193 -90 -11 72 89 -44 49 -29 -20 32 -34 0
-194 -92 0
-194 20 0
-194 76 0
-194 29 0
-194 -90 0
-194 49 0
-194 35 0
-194 -30 0
-194 -16 0
-194 -39 0
194 92 -20 -76 -29 90 -49 -35 30 16 39 0
-195 19 0
-195 8 0
-195 4 0
-195 39 0
-195 55 0
-195 -13 0
-195 -95 0
-195 100 0
-195 10 0
-195 -89 0
195 -19 -8 -4 -39 -55 13 95 -100 -10 89 0
-196 -7 0
-196 -15 0
-196 86 0
-196 10 0
-196 -46 0
-196 -27 0
-196 37 0
-196 -69 0
-196 -73 0
-196 -49 0
196 7 15 -86 -10 46 27 -37 69 73 49 0
-197 -6 0
-197 -91 0
-197 -86 0
-197 -64 0
-197 -52 0
-197 4 0
-197 -46 0
-197 -41 0
-197 -50 0
-197 23 0
197 6 91 86 64 52 -4 46 41 50 -23 0
-198 39 0
-198 40 0
-198 -77 0
-198 -72 0
-198 -59 0
-198 97 0
-198 18 0
-198 -84 0
-198 70 0
-198 -24 0
198 -39 -40 77 72 59 -97 -18 84 -70 24 0
-199 -76 0
-199 -64 0
-199 75 0
-199 -85 0
-199 -69 0
-199 -70 0
-199 7 0
-199 79 0
-199 -81 0
-199 86 0
199 76 64 -75 85 69 70 -7 -79 81 -86 0
-200 -7 0
-200 20 0
-200 -93 0
-200 97 0
-200 2 0
-200 91 0
-200 -81 0
-200 -25 0
-200 5 0
-200 -65 0
200 7 -20 93 -97 -2 -91 81 25 -5 65 0
191 192 193 194 195 196 197 198 199 200 0
